NAME: test116
TYPE: TSP
DIMENSION: 20
EDGE_WEIGHT_TYPE: EUC_2D
NODE_COORD_SECTION
1 70.40416157796466 93.26705609183527
2 75.23359027392357 66.89123880485013
3 63.4808902965437 59.57988266031109
4 6.29509065943108 70.79829166375711
5 1.2179191963437974 66.27185732305534
6 22.333746240183906 86.85573325361332
7 30.252335851666047 91.61545249944375
8 53.37203762335293 82.64907294658433
9 55.692405552890946 57.768980904992915
10 32.14765659148311 53.02624005626222
11 66.53386755114845 14.627096550143381
12 18.571772788733064 60.24331649569263
13 61.65739486006117 39.30218090992446
14 35.44254077641257 4.842442311112338
15 30.273394380733297 75.97987659012738
16 24.07099036202872 66.68962475174209
17 66.57309226418259 45.76861097572805
18 16.371548471331465 67.55795482381515
19 6.934672304080847 42.518440552395155
20 17.070394271808 76.79823805895778
EOF
